c FILE			: s4.gr
c No. of vertices	: 16
c No. of directed edges	: 55
c Max. weight		: 16
c Min. weight		: 0
c A directed arc from u to v of weight w
c is represented below as ' a  u  v  w '
p sp 16 55
a 1 3 5
a 1 3 13
a 1 11 14
a 1 11 13
a 2 13 0
a 2 1 9
a 2 16 0
a 3 14 3
a 3 4 15
a 4 10 4
a 4 10 3
a 4 6 14
a 5 9 12
a 5 9 15
a 5 9 13
a 5 2 9
a 6 1 5
a 6 1 14
a 6 11 13
a 6 11 9
a 7 15 0
a 7 15 14
a 7 15 4
a 7 5 15
a 7 8 12
a 7 8 12
a 7 3 11
a 9 5 1
a 9 5 14
a 9 5 4
a 9 8 15
a 9 8 1
a 10 15 13
a 10 2 14
a 11 12 13
a 11 12 9
a 11 12 9
a 11 10 3
a 11 10 3
a 12 11 11
a 12 11 14
a 12 16 3
a 12 16 14
a 12 7 2
a 12 2 11
a 13 3 12
a 13 3 7
a 13 16 3
a 14 12 1
a 15 9 5
a 15 9 10
a 15 1 10
a 16 7 14
a 16 7 6
a 16 9 14
